\ENCODING=ISO-8859-1
\Problem name: IloCplex

Maximize
 obj1: 0.166666666666667 x1 + 0.416666666666667 x2 + 0.5 x3 + 0.5 x4
       + 0.833333333333333 x5
Subject To
 c1: 20 x1 + 45 x2 + 50 x3 + 55 x4 + 75 x5 <= 110
Bounds
 0 <= x1 <= 2147483647
 0 <= x2 <= 2147483647
 0 <= x3 <= 2147483647
 0 <= x4 <= 2147483647
 0 <= x5 <= 2147483647
Generals
 x1  x2  x3  x4  x5 
End
